NAME: X233-FSMD
COMMENT: Generated by Uchoa, Pecin, Pessoa, Poggi, Subramanian, and Vidal (2013). Modified by Sadykov, Pessoa and Uchoa (2017). Converted to PyVRP's VRPLIB dialect.
TYPE: HFVRP
DIMENSION: 233
VEHICLES: 696
EDGE_WEIGHT_TYPE: EUC_2D
NODE_COORD_SECTION
1	500	500
2	816	981
3	349	338
4	22	205
5	385	344
6	913	54
7	524	123
8	239	335
9	150	84
10	84	860
11	645	647
12	507	516
13	153	940
14	429	602
15	596	759
16	776	399
17	942	767
18	871	2
19	714	950
20	72	400
21	765	315
22	666	798
23	287	851
24	3	201
25	78	724
26	896	240
27	59	735
28	253	251
29	37	22
30	973	599
31	726	13
32	82	262
33	2	631
34	133	656
35	435	741
36	834	714
37	37	861
38	946	211
39	290	110
40	423	350
41	406	414
42	804	581
43	846	956
44	849	683
45	79	883
46	433	93
47	610	253
48	686	486
49	229	248
50	382	597
51	544	618
52	585	303
53	732	387
54	533	952
55	563	807
56	780	940
57	665	561
58	591	536
59	35	216
60	577	969
61	811	927
62	592	744
63	280	384
64	866	228
65	153	27
66	401	481
67	72	488
68	610	324
69	381	300
70	209	675
71	139	848
72	354	124
73	386	572
74	36	764
75	660	422
76	719	264
77	761	560
78	231	203
79	769	312
80	905	645
81	304	372
82	970	966
83	51	257
84	189	934
85	516	6
86	756	36
87	47	139
88	428	61
89	100	853
90	923	919
91	751	480
92	555	726
93	463	190
94	130	131
95	105	943
96	83	892
97	215	690
98	869	706
99	512	831
100	603	287
101	668	913
102	954	694
103	321	587
104	282	907
105	339	810
106	30	659
107	339	296
108	367	511
109	448	223
110	72	181
111	323	183
112	684	125
113	415	387
114	882	359
115	485	115
116	133	541
117	368	424
118	585	302
119	991	97
120	198	817
121	634	849
122	142	639
123	455	777
124	436	774
125	245	581
126	112	691
127	665	246
128	37	450
129	436	843
130	899	115
131	983	90
132	461	866
133	429	752
134	696	466
135	629	807
136	506	293
137	11	521
138	50	515
139	109	570
140	677	876
141	171	930
142	919	111
143	425	775
144	470	783
145	129	852
146	504	181
147	439	799
148	919	181
149	469	826
150	390	729
151	83	649
152	469	662
153	161	759
154	656	281
155	90	681
156	563	555
157	399	828
158	155	612
159	213	837
160	280	680
161	473	689
162	153	586
163	273	698
164	191	650
165	645	830
166	484	821
167	384	375
168	65	890
169	137	561
170	432	780
171	561	523
172	390	934
173	481	236
174	725	818
175	272	710
176	998	76
177	544	282
178	866	252
179	358	678
180	439	687
181	470	303
182	636	804
183	461	690
184	912	114
185	406	829
186	372	683
187	446	812
188	378	754
189	412	780
190	637	870
191	953	185
192	541	254
193	498	856
194	535	304
195	652	948
196	318	654
197	117	832
198	648	144
199	410	863
200	371	627
201	634	872
202	308	649
203	235	979
204	271	865
205	115	761
206	553	750
207	723	813
208	405	889
209	570	761
210	114	660
211	159	883
212	460	699
213	185	559
214	472	799
215	320	641
216	508	754
217	294	874
218	265	793
219	999	125
220	999	75
221	662	727
222	464	770
223	724	174
224	603	260
225	530	286
226	383	845
227	814	812
228	96	554
229	605	284
230	134	625
231	568	454
232	220	931
233	162	792
DEMAND_SECTION
1	0
2	53
3	64
4	54
5	63
6	45
7	6
8	100
9	63
10	5
11	74
12	87
13	11
14	33
15	63
16	36
17	93
18	28
19	89
20	64
21	8
22	69
23	40
24	65
25	29
26	30
27	19
28	78
29	78
30	55
31	6
32	94
33	25
34	38
35	2
36	69
37	42
38	43
39	94
40	74
41	54
42	93
43	76
44	92
45	49
46	85
47	4
48	12
49	70
50	17
51	82
52	16
53	1
54	51
55	94
56	74
57	56
58	66
59	79
60	88
61	65
62	87
63	62
64	5
65	67
66	78
67	57
68	45
69	82
70	18
71	35
72	88
73	8
74	13
75	37
76	45
77	75
78	70
79	13
80	69
81	59
82	88
83	88
84	23
85	4
86	49
87	67
88	75
89	9
90	94
91	45
92	59
93	100
94	84
95	34
96	18
97	24
98	66
99	71
100	47
101	99
102	75
103	11
104	28
105	8
106	50
107	83
108	44
109	53
110	86
111	97
112	10
113	73
114	27
115	74
116	36
117	85
118	43
119	39
120	25
121	55
122	14
123	30
124	4
125	23
126	16
127	23
128	100
129	20
130	12
131	29
132	5
133	17
134	2
135	93
136	27
137	7
138	16
139	2
140	75
141	8
142	6
143	43
144	18
145	34
146	29
147	37
148	13
149	26
150	25
151	36
152	14
153	45
154	23
155	50
156	55
157	24
158	9
159	11
160	27
161	24
162	21
163	3
164	40
165	76
166	45
167	99
168	29
169	5
170	31
171	84
172	45
173	65
174	75
175	6
176	38
177	42
178	11
179	10
180	12
181	94
182	86
183	45
184	35
185	15
186	35
187	14
188	50
189	20
190	96
191	31
192	6
193	2
194	23
195	85
196	8
197	34
198	7
199	32
200	33
201	57
202	39
203	2
204	8
205	40
206	74
207	94
208	30
209	54
210	2
211	33
212	20
213	47
214	40
215	35
216	64
217	35
218	18
219	43
220	15
221	85
222	43
223	20
224	23
225	10
226	17
227	54
228	41
229	25
230	11
231	23
232	19
233	40
CAPACITY_SECTION
1	200
2	200
3	200
4	200
5	200
6	200
7	200
8	200
9	200
10	200
11	200
12	200
13	200
14	200
15	200
16	200
17	200
18	200
19	200
20	200
21	200
22	200
23	200
24	200
25	200
26	200
27	200
28	200
29	200
30	200
31	200
32	200
33	200
34	200
35	200
36	200
37	200
38	200
39	200
40	200
41	200
42	200
43	200
44	200
45	200
46	200
47	200
48	200
49	200
50	200
51	200
52	200
53	200
54	200
55	200
56	200
57	200
58	200
59	200
60	200
61	200
62	200
63	200
64	200
65	200
66	200
67	200
68	200
69	200
70	200
71	200
72	200
73	200
74	200
75	200
76	200
77	200
78	200
79	200
80	200
81	200
82	200
83	200
84	200
85	200
86	200
87	200
88	200
89	200
90	200
91	200
92	200
93	200
94	200
95	200
96	200
97	200
98	200
99	200
100	200
101	200
102	200
103	200
104	200
105	200
106	200
107	200
108	200
109	200
110	200
111	200
112	200
113	200
114	200
115	200
116	200
117	200
118	200
119	200
120	200
121	200
122	200
123	200
124	200
125	200
126	200
127	200
128	200
129	200
130	200
131	200
132	200
133	200
134	200
135	200
136	200
137	200
138	200
139	200
140	200
141	200
142	200
143	200
144	200
145	200
146	200
147	200
148	200
149	200
150	200
151	200
152	200
153	200
154	200
155	200
156	200
157	200
158	200
159	200
160	200
161	200
162	200
163	200
164	200
165	200
166	200
167	200
168	200
169	200
170	200
171	200
172	200
173	200
174	200
175	200
176	200
177	200
178	200
179	200
180	200
181	200
182	200
183	200
184	200
185	200
186	200
187	200
188	200
189	200
190	200
191	200
192	200
193	200
194	200
195	200
196	200
197	200
198	200
199	200
200	200
201	200
202	200
203	200
204	200
205	200
206	200
207	200
208	200
209	200
210	200
211	200
212	200
213	200
214	200
215	200
216	200
217	200
218	200
219	200
220	200
221	200
222	200
223	200
224	200
225	200
226	200
227	200
228	200
229	200
230	200
231	200
232	200
233	491
234	491
235	491
236	491
237	491
238	491
239	491
240	491
241	491
242	491
243	491
244	491
245	491
246	491
247	491
248	491
249	491
250	491
251	491
252	491
253	491
254	491
255	491
256	491
257	491
258	491
259	491
260	491
261	491
262	491
263	491
264	491
265	491
266	491
267	491
268	491
269	491
270	491
271	491
272	491
273	491
274	491
275	491
276	491
277	491
278	491
279	491
280	491
281	491
282	491
283	491
284	491
285	491
286	491
287	491
288	491
289	491
290	491
291	491
292	491
293	491
294	491
295	491
296	491
297	491
298	491
299	491
300	491
301	491
302	491
303	491
304	491
305	491
306	491
307	491
308	491
309	491
310	491
311	491
312	491
313	491
314	491
315	491
316	491
317	491
318	491
319	491
320	491
321	491
322	491
323	491
324	491
325	491
326	491
327	491
328	491
329	491
330	491
331	491
332	491
333	491
334	491
335	491
336	491
337	491
338	491
339	491
340	491
341	491
342	491
343	491
344	491
345	491
346	491
347	491
348	491
349	491
350	491
351	491
352	491
353	491
354	491
355	491
356	491
357	491
358	491
359	491
360	491
361	491
362	491
363	491
364	491
365	491
366	491
367	491
368	491
369	491
370	491
371	491
372	491
373	491
374	491
375	491
376	491
377	491
378	491
379	491
380	491
381	491
382	491
383	491
384	491
385	491
386	491
387	491
388	491
389	491
390	491
391	491
392	491
393	491
394	491
395	491
396	491
397	491
398	491
399	491
400	491
401	491
402	491
403	491
404	491
405	491
406	491
407	491
408	491
409	491
410	491
411	491
412	491
413	491
414	491
415	491
416	491
417	491
418	491
419	491
420	491
421	491
422	491
423	491
424	491
425	491
426	491
427	491
428	491
429	491
430	491
431	491
432	491
433	491
434	491
435	491
436	491
437	491
438	491
439	491
440	491
441	491
442	491
443	491
444	491
445	491
446	491
447	491
448	491
449	491
450	491
451	491
452	491
453	491
454	491
455	491
456	491
457	491
458	491
459	491
460	491
461	491
462	491
463	491
464	491
465	1202
466	1202
467	1202
468	1202
469	1202
470	1202
471	1202
472	1202
473	1202
474	1202
475	1202
476	1202
477	1202
478	1202
479	1202
480	1202
481	1202
482	1202
483	1202
484	1202
485	1202
486	1202
487	1202
488	1202
489	1202
490	1202
491	1202
492	1202
493	1202
494	1202
495	1202
496	1202
497	1202
498	1202
499	1202
500	1202
501	1202
502	1202
503	1202
504	1202
505	1202
506	1202
507	1202
508	1202
509	1202
510	1202
511	1202
512	1202
513	1202
514	1202
515	1202
516	1202
517	1202
518	1202
519	1202
520	1202
521	1202
522	1202
523	1202
524	1202
525	1202
526	1202
527	1202
528	1202
529	1202
530	1202
531	1202
532	1202
533	1202
534	1202
535	1202
536	1202
537	1202
538	1202
539	1202
540	1202
541	1202
542	1202
543	1202
544	1202
545	1202
546	1202
547	1202
548	1202
549	1202
550	1202
551	1202
552	1202
553	1202
554	1202
555	1202
556	1202
557	1202
558	1202
559	1202
560	1202
561	1202
562	1202
563	1202
564	1202
565	1202
566	1202
567	1202
568	1202
569	1202
570	1202
571	1202
572	1202
573	1202
574	1202
575	1202
576	1202
577	1202
578	1202
579	1202
580	1202
581	1202
582	1202
583	1202
584	1202
585	1202
586	1202
587	1202
588	1202
589	1202
590	1202
591	1202
592	1202
593	1202
594	1202
595	1202
596	1202
597	1202
598	1202
599	1202
600	1202
601	1202
602	1202
603	1202
604	1202
605	1202
606	1202
607	1202
608	1202
609	1202
610	1202
611	1202
612	1202
613	1202
614	1202
615	1202
616	1202
617	1202
618	1202
619	1202
620	1202
621	1202
622	1202
623	1202
624	1202
625	1202
626	1202
627	1202
628	1202
629	1202
630	1202
631	1202
632	1202
633	1202
634	1202
635	1202
636	1202
637	1202
638	1202
639	1202
640	1202
641	1202
642	1202
643	1202
644	1202
645	1202
646	1202
647	1202
648	1202
649	1202
650	1202
651	1202
652	1202
653	1202
654	1202
655	1202
656	1202
657	1202
658	1202
659	1202
660	1202
661	1202
662	1202
663	1202
664	1202
665	1202
666	1202
667	1202
668	1202
669	1202
670	1202
671	1202
672	1202
673	1202
674	1202
675	1202
676	1202
677	1202
678	1202
679	1202
680	1202
681	1202
682	1202
683	1202
684	1202
685	1202
686	1202
687	1202
688	1202
689	1202
690	1202
691	1202
692	1202
693	1202
694	1202
695	1202
696	1202
VEHICLES_UNIT_DISTANCE_COST_SECTION
1	58
2	58
3	58
4	58
5	58
6	58
7	58
8	58
9	58
10	58
11	58
12	58
13	58
14	58
15	58
16	58
17	58
18	58
19	58
20	58
21	58
22	58
23	58
24	58
25	58
26	58
27	58
28	58
29	58
30	58
31	58
32	58
33	58
34	58
35	58
36	58
37	58
38	58
39	58
40	58
41	58
42	58
43	58
44	58
45	58
46	58
47	58
48	58
49	58
50	58
51	58
52	58
53	58
54	58
55	58
56	58
57	58
58	58
59	58
60	58
61	58
62	58
63	58
64	58
65	58
66	58
67	58
68	58
69	58
70	58
71	58
72	58
73	58
74	58
75	58
76	58
77	58
78	58
79	58
80	58
81	58
82	58
83	58
84	58
85	58
86	58
87	58
88	58
89	58
90	58
91	58
92	58
93	58
94	58
95	58
96	58
97	58
98	58
99	58
100	58
101	58
102	58
103	58
104	58
105	58
106	58
107	58
108	58
109	58
110	58
111	58
112	58
113	58
114	58
115	58
116	58
117	58
118	58
119	58
120	58
121	58
122	58
123	58
124	58
125	58
126	58
127	58
128	58
129	58
130	58
131	58
132	58
133	58
134	58
135	58
136	58
137	58
138	58
139	58
140	58
141	58
142	58
143	58
144	58
145	58
146	58
147	58
148	58
149	58
150	58
151	58
152	58
153	58
154	58
155	58
156	58
157	58
158	58
159	58
160	58
161	58
162	58
163	58
164	58
165	58
166	58
167	58
168	58
169	58
170	58
171	58
172	58
173	58
174	58
175	58
176	58
177	58
178	58
179	58
180	58
181	58
182	58
183	58
184	58
185	58
186	58
187	58
188	58
189	58
190	58
191	58
192	58
193	58
194	58
195	58
196	58
197	58
198	58
199	58
200	58
201	58
202	58
203	58
204	58
205	58
206	58
207	58
208	58
209	58
210	58
211	58
212	58
213	58
214	58
215	58
216	58
217	58
218	58
219	58
220	58
221	58
222	58
223	58
224	58
225	58
226	58
227	58
228	58
229	58
230	58
231	58
232	58
233	100
234	100
235	100
236	100
237	100
238	100
239	100
240	100
241	100
242	100
243	100
244	100
245	100
246	100
247	100
248	100
249	100
250	100
251	100
252	100
253	100
254	100
255	100
256	100
257	100
258	100
259	100
260	100
261	100
262	100
263	100
264	100
265	100
266	100
267	100
268	100
269	100
270	100
271	100
272	100
273	100
274	100
275	100
276	100
277	100
278	100
279	100
280	100
281	100
282	100
283	100
284	100
285	100
286	100
287	100
288	100
289	100
290	100
291	100
292	100
293	100
294	100
295	100
296	100
297	100
298	100
299	100
300	100
301	100
302	100
303	100
304	100
305	100
306	100
307	100
308	100
309	100
310	100
311	100
312	100
313	100
314	100
315	100
316	100
317	100
318	100
319	100
320	100
321	100
322	100
323	100
324	100
325	100
326	100
327	100
328	100
329	100
330	100
331	100
332	100
333	100
334	100
335	100
336	100
337	100
338	100
339	100
340	100
341	100
342	100
343	100
344	100
345	100
346	100
347	100
348	100
349	100
350	100
351	100
352	100
353	100
354	100
355	100
356	100
357	100
358	100
359	100
360	100
361	100
362	100
363	100
364	100
365	100
366	100
367	100
368	100
369	100
370	100
371	100
372	100
373	100
374	100
375	100
376	100
377	100
378	100
379	100
380	100
381	100
382	100
383	100
384	100
385	100
386	100
387	100
388	100
389	100
390	100
391	100
392	100
393	100
394	100
395	100
396	100
397	100
398	100
399	100
400	100
401	100
402	100
403	100
404	100
405	100
406	100
407	100
408	100
409	100
410	100
411	100
412	100
413	100
414	100
415	100
416	100
417	100
418	100
419	100
420	100
421	100
422	100
423	100
424	100
425	100
426	100
427	100
428	100
429	100
430	100
431	100
432	100
433	100
434	100
435	100
436	100
437	100
438	100
439	100
440	100
441	100
442	100
443	100
444	100
445	100
446	100
447	100
448	100
449	100
450	100
451	100
452	100
453	100
454	100
455	100
456	100
457	100
458	100
459	100
460	100
461	100
462	100
463	100
464	100
465	147
466	147
467	147
468	147
469	147
470	147
471	147
472	147
473	147
474	147
475	147
476	147
477	147
478	147
479	147
480	147
481	147
482	147
483	147
484	147
485	147
486	147
487	147
488	147
489	147
490	147
491	147
492	147
493	147
494	147
495	147
496	147
497	147
498	147
499	147
500	147
501	147
502	147
503	147
504	147
505	147
506	147
507	147
508	147
509	147
510	147
511	147
512	147
513	147
514	147
515	147
516	147
517	147
518	147
519	147
520	147
521	147
522	147
523	147
524	147
525	147
526	147
527	147
528	147
529	147
530	147
531	147
532	147
533	147
534	147
535	147
536	147
537	147
538	147
539	147
540	147
541	147
542	147
543	147
544	147
545	147
546	147
547	147
548	147
549	147
550	147
551	147
552	147
553	147
554	147
555	147
556	147
557	147
558	147
559	147
560	147
561	147
562	147
563	147
564	147
565	147
566	147
567	147
568	147
569	147
570	147
571	147
572	147
573	147
574	147
575	147
576	147
577	147
578	147
579	147
580	147
581	147
582	147
583	147
584	147
585	147
586	147
587	147
588	147
589	147
590	147
591	147
592	147
593	147
594	147
595	147
596	147
597	147
598	147
599	147
600	147
601	147
602	147
603	147
604	147
605	147
606	147
607	147
608	147
609	147
610	147
611	147
612	147
613	147
614	147
615	147
616	147
617	147
618	147
619	147
620	147
621	147
622	147
623	147
624	147
625	147
626	147
627	147
628	147
629	147
630	147
631	147
632	147
633	147
634	147
635	147
636	147
637	147
638	147
639	147
640	147
641	147
642	147
643	147
644	147
645	147
646	147
647	147
648	147
649	147
650	147
651	147
652	147
653	147
654	147
655	147
656	147
657	147
658	147
659	147
660	147
661	147
662	147
663	147
664	147
665	147
666	147
667	147
668	147
669	147
670	147
671	147
672	147
673	147
674	147
675	147
676	147
677	147
678	147
679	147
680	147
681	147
682	147
683	147
684	147
685	147
686	147
687	147
688	147
689	147
690	147
691	147
692	147
693	147
694	147
695	147
696	147
DEPOT_SECTION
1
EOF
